; PUSH cw_1 SWAP2 DUP2 SWAP1 => DUP1 PUSH cw_1 SWAP3
(set-option :produce-proofs true)
; 
(set-info :status unknown)
(declare-fun storage_t ((_ BitVec 256) (_ BitVec 256) (_ BitVec 256) Int (_ BitVec 256)) (_ BitVec 256))
(declare-fun w_1 () (_ BitVec 256))
(declare-fun storage_s ((_ BitVec 256) (_ BitVec 256) (_ BitVec 256) Int (_ BitVec 256)) (_ BitVec 256))
(declare-fun exc_halt_t (Int) Bool)
(declare-fun exc_halt_s (Int) Bool)
(declare-fun sc_t (Int) (_ BitVec 6))
(declare-fun stack_t ((_ BitVec 256) (_ BitVec 256) (_ BitVec 256) Int (_ BitVec 6)) (_ BitVec 256))
(declare-fun stack_s ((_ BitVec 256) (_ BitVec 256) (_ BitVec 256) Int (_ BitVec 6)) (_ BitVec 256))
(declare-fun sc_s (Int) (_ BitVec 6))
(declare-fun used_gas_t ((_ BitVec 256) (_ BitVec 256) (_ BitVec 256) Int) Int)
(declare-fun used_gas_s ((_ BitVec 256) (_ BitVec 256) (_ BitVec 256) Int) Int)
(assert
 (exists ((x_0 (_ BitVec 256)) (x_1 (_ BitVec 256)) )(let (($x461 (forall ((w (_ BitVec 256)) )(let ((?x6275 (storage_t x_0 x_1 w_1 3 w)))
 (let ((?x6303 (storage_s x_0 x_1 w_1 4 w)))
 (= ?x6303 ?x6275))))
 ))
 (let (($x3614 (exc_halt_t 3)))
 (let (($x7172 (exc_halt_s 4)))
 (let (($x8143 (= $x7172 $x3614)))
 (let (($x914 (forall ((n (_ BitVec 6)) )(let ((?x11304 (sc_t 3)))
 (let (($x5590 (bvsle ?x11304 n)))
 (let ((?x38 (stack_t x_0 x_1 w_1 3 n)))
 (let ((?x5882 (stack_s x_0 x_1 w_1 4 n)))
 (let (($x5393 (= ?x5882 ?x38)))
 (or $x5393 $x5590)))))))
 ))
 (let ((?x11304 (sc_t 3)))
 (let ((?x4305 (sc_s 4)))
 (let (($x6869 (= ?x4305 ?x11304)))
 (let ((?x124 (used_gas_t x_0 x_1 w_1 0)))
 (let ((?x7545 (used_gas_s x_0 x_1 w_1 0)))
 (let (($x2109 (= ?x7545 ?x124)))
 (let (($x4513 (forall ((w (_ BitVec 256)) )(let ((?x4269 (storage_t x_0 x_1 w_1 0 w)))
 (let ((?x11473 (storage_s x_0 x_1 w_1 0 w)))
 (= ?x11473 ?x4269))))
 ))
 (let (($x56 (exc_halt_t 0)))
 (let (($x57 (exc_halt_s 0)))
 (let (($x58 (= $x57 $x56)))
 (let (($x5697 (forall ((n (_ BitVec 6)) )(let ((?x63 (sc_t 0)))
 (let (($x6552 (bvsle ?x63 n)))
 (let ((?x10051 (stack_t x_0 x_1 w_1 0 n)))
 (let ((?x930 (stack_s x_0 x_1 w_1 0 n)))
 (let (($x2835 (= ?x930 ?x10051)))
 (or $x2835 $x6552)))))))
 ))
 (let ((?x63 (sc_t 0)))
 (let ((?x72 (sc_s 0)))
 (let (($x73 (= ?x72 ?x63)))
 (let (($x7542 (= $x3614 (or (exc_halt_t 2) (not (bvsle (_ bv0 6) (bvadd (_ bv60 6) (sc_t 2))))))))
 (let (($x1723 (forall ((w (_ BitVec 256)) )(let ((?x8810 (storage_t x_0 x_1 w_1 2 w)))
 (let ((?x6275 (storage_t x_0 x_1 w_1 3 w)))
 (= ?x6275 ?x8810))))
 ))
 (let (($x1252 (forall ((n (_ BitVec 6)) )(let ((?x11293 (stack_t x_0 x_1 w_1 2 n)))
 (let ((?x38 (stack_t x_0 x_1 w_1 3 n)))
 (or (bvsle (bvadd (_ bv60 6) (sc_t 2)) n) (= ?x38 ?x11293)))))
 ))
 (let (($x2658 (= (used_gas_t x_0 x_1 w_1 3) (+ 3 (used_gas_t x_0 x_1 w_1 2)))))
 (let (($x8131 (= (stack_t x_0 x_1 w_1 3 (bvadd (_ bv62 6) ?x11304)) (stack_t x_0 x_1 w_1 2 (bvadd (_ bv62 6) (sc_t 2))))))
 (let (($x9055 (= (stack_t x_0 x_1 w_1 3 (bvadd (_ bv61 6) ?x11304)) (stack_t x_0 x_1 w_1 2 (bvadd (_ bv61 6) (sc_t 2))))))
 (let (($x5893 (= (stack_t x_0 x_1 w_1 3 (bvadd (_ bv60 6) ?x11304)) (stack_t x_0 x_1 w_1 2 (bvadd (_ bv63 6) (sc_t 2))))))
 (let (($x928 (= (stack_t x_0 x_1 w_1 3 (bvadd (_ bv63 6) ?x11304)) (stack_t x_0 x_1 w_1 2 (bvadd (_ bv60 6) (sc_t 2))))))
 (let (($x3336 (not (= ((_ extract 6 6) (bvadd (_ bv1 7) (concat (_ bv0 1) (sc_t 1)))) (_ bv0 1)))))
 (let (($x8377 (exc_halt_t 1)))
 (let (($x9674 (exc_halt_t 2)))
 (let (($x1163 (= $x9674 (or $x8377 $x3336))))
 (let (($x10857 (forall ((w (_ BitVec 256)) )(let ((?x11042 (storage_t x_0 x_1 w_1 1 w)))
 (let ((?x8810 (storage_t x_0 x_1 w_1 2 w)))
 (= ?x8810 ?x11042))))
 ))
 (let (($x1645 (forall ((n (_ BitVec 6)) )(let ((?x1046 (stack_t x_0 x_1 w_1 1 n)))
 (let ((?x11293 (stack_t x_0 x_1 w_1 2 n)))
 (let ((?x7154 (sc_t 1)))
 (let (($x9289 (bvsle ?x7154 n)))
 (or $x9289 (= ?x11293 ?x1046)))))))
 ))
 (let ((?x6158 (sc_t 2)))
 (let (($x3131 (= ?x6158 (bvadd (_ bv1 6) (sc_t 1)))))
 (let ((?x3635 (used_gas_t x_0 x_1 w_1 2)))
 (let (($x9612 (not (= ((_ extract 6 6) (bvadd (_ bv1 7) (concat (_ bv0 1) ?x63))) (_ bv0 1)))))
 (let (($x7505 (= $x8377 (or $x56 (not (bvsle (_ bv0 6) (bvadd (_ bv63 6) ?x63))) $x9612))))
 (let (($x4468 (forall ((w (_ BitVec 256)) )(let ((?x4269 (storage_t x_0 x_1 w_1 0 w)))
 (let ((?x11042 (storage_t x_0 x_1 w_1 1 w)))
 (= ?x11042 ?x4269))))
 ))
 (let (($x8290 (forall ((n (_ BitVec 6)) )(let ((?x10051 (stack_t x_0 x_1 w_1 0 n)))
 (let ((?x1046 (stack_t x_0 x_1 w_1 1 n)))
 (let ((?x63 (sc_t 0)))
 (let ((?x11871 (bvadd (_ bv63 6) ?x63)))
 (let (($x3708 (bvsle ?x11871 n)))
 (or $x3708 (= ?x1046 ?x10051))))))))
 ))
 (let ((?x7154 (sc_t 1)))
 (let (($x10097 (= ?x7154 (bvadd (_ bv1 6) ?x63))))
 (let ((?x11871 (bvadd (_ bv63 6) ?x63)))
 (let ((?x988 (stack_t x_0 x_1 w_1 0 ?x11871)))
 (let (($x6198 (= $x7172 (or (exc_halt_s 3) (not (bvsle (_ bv0 6) (bvadd (_ bv62 6) (sc_s 3))))))))
 (let (($x6754 (forall ((w (_ BitVec 256)) )(let ((?x8959 (storage_s x_0 x_1 w_1 3 w)))
 (let ((?x6303 (storage_s x_0 x_1 w_1 4 w)))
 (= ?x6303 ?x8959))))
 ))
 (let (($x5905 (forall ((n (_ BitVec 6)) )(let ((?x8125 (stack_s x_0 x_1 w_1 3 n)))
 (let ((?x5882 (stack_s x_0 x_1 w_1 4 n)))
 (let ((?x275 (sc_s 3)))
 (let ((?x10583 (bvadd (_ bv62 6) ?x275)))
 (let (($x2401 (bvsle ?x10583 n)))
 (or $x2401 (= ?x5882 ?x8125))))))))
 ))
 (let ((?x275 (sc_s 3)))
 (let (($x5793 (= ?x4305 ?x275)))
 (let (($x7890 (= (used_gas_s x_0 x_1 w_1 4) (+ 3 (used_gas_s x_0 x_1 w_1 3)))))
 (let ((?x3112 (bvadd (_ bv63 6) ?x275)))
 (let ((?x10693 (stack_s x_0 x_1 w_1 3 ?x3112)))
 (let (($x9147 (= (stack_s x_0 x_1 w_1 4 (bvadd (_ bv63 6) ?x4305)) (stack_s x_0 x_1 w_1 3 (bvadd (_ bv62 6) ?x275)))))
 (let (($x11028 (not (bvsle (_ bv0 6) (bvadd (_ bv62 6) (sc_s 2))))))
 (let (($x247 (exc_halt_s 2)))
 (let (($x714 (or $x247 (not (= ((_ extract 6 6) (bvadd (_ bv1 7) (concat (_ bv0 1) (sc_s 2)))) (_ bv0 1))) $x11028)))
 (let (($x292 (exc_halt_s 3)))
 (let (($x7199 (= $x292 $x714)))
 (let (($x6260 (forall ((w (_ BitVec 256)) )(let ((?x9922 (storage_s x_0 x_1 w_1 2 w)))
 (let ((?x8959 (storage_s x_0 x_1 w_1 3 w)))
 (= ?x8959 ?x9922))))
 ))
 (let (($x6443 (forall ((n (_ BitVec 6)) )(let ((?x2524 (stack_s x_0 x_1 w_1 2 n)))
 (let ((?x8125 (stack_s x_0 x_1 w_1 3 n)))
 (let ((?x218 (sc_s 2)))
 (let ((?x11936 (bvadd (_ bv62 6) ?x218)))
 (let (($x1347 (bvsle ?x11936 n)))
 (or $x1347 (= ?x8125 ?x2524))))))))
 ))
 (let (($x799 (= ?x275 (bvadd (_ bv1 6) (sc_s 2)))))
 (let ((?x2050 (used_gas_s x_0 x_1 w_1 3)))
 (let ((?x218 (sc_s 2)))
 (let ((?x9412 (bvadd (_ bv63 6) ?x218)))
 (let ((?x10680 (stack_s x_0 x_1 w_1 2 ?x9412)))
 (let ((?x11936 (bvadd (_ bv62 6) ?x218)))
 (let ((?x213 (stack_s x_0 x_1 w_1 2 ?x11936)))
 (let (($x7327 (= $x247 (or (exc_halt_s 1) (not (bvsle (_ bv0 6) (bvadd (_ bv61 6) (sc_s 1))))))))
 (let (($x7870 (forall ((w (_ BitVec 256)) )(let ((?x323 (storage_s x_0 x_1 w_1 1 w)))
 (let ((?x9922 (storage_s x_0 x_1 w_1 2 w)))
 (= ?x9922 ?x323))))
 ))
 (let (($x6200 (forall ((n (_ BitVec 6)) )(let ((?x9420 (stack_s x_0 x_1 w_1 1 n)))
 (let ((?x2524 (stack_s x_0 x_1 w_1 2 n)))
 (or (bvsle (bvadd (_ bv61 6) (sc_s 1)) n) (= ?x2524 ?x9420)))))
 ))
 (let ((?x154 (sc_s 1)))
 (let (($x675 (= ?x218 ?x154)))
 (let ((?x448 (used_gas_s x_0 x_1 w_1 2)))
 (let (($x7749 (= (stack_s x_0 x_1 w_1 2 (bvadd (_ bv61 6) ?x218)) (stack_s x_0 x_1 w_1 1 (bvadd (_ bv63 6) ?x154)))))
 (let (($x189 (exc_halt_s 1)))
 (let (($x1616 (= $x189 (or $x57 (not (= ((_ extract 6 6) (bvadd (_ bv1 7) (concat (_ bv0 1) ?x72))) (_ bv0 1)))))))
 (let (($x11360 (forall ((w (_ BitVec 256)) )(let ((?x11473 (storage_s x_0 x_1 w_1 0 w)))
 (let ((?x323 (storage_s x_0 x_1 w_1 1 w)))
 (= ?x323 ?x11473))))
 ))
 (let (($x3012 (forall ((n (_ BitVec 6)) )(let ((?x930 (stack_s x_0 x_1 w_1 0 n)))
 (let ((?x9420 (stack_s x_0 x_1 w_1 1 n)))
 (let ((?x72 (sc_s 0)))
 (let (($x2753 (bvsle ?x72 n)))
 (or $x2753 (= ?x9420 ?x930)))))))
 ))
 (let (($x11322 (= ?x154 (bvadd (_ bv1 6) ?x72))))
 (let (($x109 (forall ((w (_ BitVec 256)) )(let ((?x11473 (storage_s x_0 x_1 w_1 0 w)))
 (= ?x11473 (_ bv0 256))))
 ))
 (let (($x3111 (= ?x7545 0)))
 (let (($x7449 (not $x57)))
 (let (($x11529 (= (stack_s x_0 x_1 w_1 0 (_ bv1 6)) x_1)))
 (let (($x10801 (= (stack_s x_0 x_1 w_1 0 (_ bv0 6)) x_0)))
 (let (($x11128 (= ?x72 (_ bv2 6))))
 (and $x11128 $x10801 $x11529 $x7449 $x3111 $x109 (= (stack_s x_0 x_1 w_1 1 ?x72) w_1) (= (used_gas_s x_0 x_1 w_1 1) (+ 3 ?x7545)) $x11322 $x3012 $x11360 $x1616 (= ?x10680 (stack_s x_0 x_1 w_1 1 (bvadd (_ bv61 6) ?x154))) $x7749 (= ?x213 (stack_s x_0 x_1 w_1 1 (bvadd (_ bv62 6) ?x154))) (= ?x448 (+ 3 (used_gas_s x_0 x_1 w_1 1))) $x675 $x6200 $x7870 $x7327 (= ?x10693 ?x213) (= (stack_s x_0 x_1 w_1 3 ?x11936) ?x213) (= (stack_s x_0 x_1 w_1 3 ?x9412) ?x10680) (= ?x2050 (+ 3 ?x448)) $x799 $x6443 $x6260 $x7199 $x9147 (= (stack_s x_0 x_1 w_1 4 (bvadd (_ bv62 6) ?x4305)) ?x10693) $x7890 $x5793 $x5905 $x6754 $x6198 (= (stack_t x_0 x_1 w_1 1 (bvadd (_ bv63 6) ?x7154)) ?x988) (= (stack_t x_0 x_1 w_1 1 ?x11871) ?x988) (= (used_gas_t x_0 x_1 w_1 1) (+ 3 ?x124)) $x10097 $x8290 $x4468 $x7505 (= (stack_t x_0 x_1 w_1 2 ?x7154) w_1) (= ?x3635 (+ 3 (used_gas_t x_0 x_1 w_1 1))) $x3131 $x1645 $x10857 $x1163 $x928 $x5893 $x9055 $x8131 $x2658 (= ?x11304 ?x6158) $x1252 $x1723 $x7542 $x73 $x5697 $x58 $x4513 $x2109 (not (and $x6869 $x914 $x8143 $x461)))))))))))))))))))))))))))))))))))))))))))))))))))))))))))))))))))))))))))))))))))))))))
 )
(check-sat)
(get-proof)
